Freeing MIP data.
Tried aggregator 3 times.
MIP Presolve eliminated 3655 rows and 2042 columns.
MIP Presolve modified 10953 coefficients.
Aggregator did 547 substitutions.
Reduced MIP has 5430 rows, 3327 columns, and 14734 nonzeros.
Reduced MIP has 2575 binaries, 0 generals, 0 SOSs, and 0 indicators.
Probing fixed 2 vars, tightened 1 bounds.
Probing time =    0.13 sec.
Tried aggregator 1 time.
MIP Presolve eliminated 1581 rows and 817 columns.
MIP Presolve modified 69 coefficients.
Reduced MIP has 3849 rows, 2510 columns, and 11567 nonzeros.
Reduced MIP has 1758 binaries, 0 generals, 0 SOSs, and 0 indicators.
Presolve time =    0.33 sec.
Found feasible solution after 0.34 sec.  Objective = -102.0000
Probing fixed 0 vars, tightened 3 bounds.
Probing time =    0.05 sec.
Clique table members: 5565.
MIP emphasis: balance optimality and feasibility.
MIP search method: dynamic search.
Parallel mode: none, using 1 thread.
Root relaxation solution time =    0.23 sec.

        Nodes                                         Cuts/
   Node  Left     Objective  IInf  Best Integer     Best Node    ItCnt     Gap

*     0+    0                         -102.0000                   1602     --- 
      0     0    infeasible           -102.0000                   1602    0.00%
CPLEX Error  1255: Incompatible with superbasis.
CPLEX Error  1255: Incompatible with superbasis.
CPLEX Error  1262: No basis exists.
